p cnf 308 448
55 56 1 85 0
55 56 1 -85 0
-55 -56 1 86 0
-55 -56 1 -86 0
55 -56 -1 87 0
55 -56 -1 -87 0
-55 56 -1 88 0
-55 56 -1 -88 0
1 57 2 89 0
1 57 2 -89 0
-1 -57 2 90 0
-1 -57 2 -90 0
1 -57 -2 91 0
1 -57 -2 -91 0
-1 57 -2 92 0
-1 57 -2 -92 0
2 58 3 93 0
2 58 3 -93 0
-2 -58 3 94 0
-2 -58 3 -94 0
2 -58 -3 95 0
2 -58 -3 -95 0
-2 58 -3 96 0
-2 58 -3 -96 0
3 59 4 97 0
3 59 4 -97 0
-3 -59 4 98 0
-3 -59 4 -98 0
3 -59 -4 99 0
3 -59 -4 -99 0
-3 59 -4 100 0
-3 59 -4 -100 0
4 60 5 101 0
4 60 5 -101 0
-4 -60 5 102 0
-4 -60 5 -102 0
4 -60 -5 103 0
4 -60 -5 -103 0
-4 60 -5 104 0
-4 60 -5 -104 0
5 61 6 105 0
5 61 6 -105 0
-5 -61 6 106 0
-5 -61 6 -106 0
5 -61 -6 107 0
5 -61 -6 -107 0
-5 61 -6 108 0
-5 61 -6 -108 0
6 62 7 109 0
6 62 7 -109 0
-6 -62 7 110 0
-6 -62 7 -110 0
6 -62 -7 111 0
6 -62 -7 -111 0
-6 62 -7 112 0
-6 62 -7 -112 0
7 63 8 113 0
7 63 8 -113 0
-7 -63 8 114 0
-7 -63 8 -114 0
7 -63 -8 115 0
7 -63 -8 -115 0
-7 63 -8 116 0
-7 63 -8 -116 0
8 64 9 117 0
8 64 9 -117 0
-8 -64 9 118 0
-8 -64 9 -118 0
8 -64 -9 119 0
8 -64 -9 -119 0
-8 64 -9 120 0
-8 64 -9 -120 0
9 65 10 121 0
9 65 10 -121 0
-9 -65 10 122 0
-9 -65 10 -122 0
9 -65 -10 123 0
9 -65 -10 -123 0
-9 65 -10 124 0
-9 65 -10 -124 0
10 66 11 125 0
10 66 11 -125 0
-10 -66 11 126 0
-10 -66 11 -126 0
10 -66 -11 127 0
10 -66 -11 -127 0
-10 66 -11 128 0
-10 66 -11 -128 0
11 67 12 129 0
11 67 12 -129 0
-11 -67 12 130 0
-11 -67 12 -130 0
11 -67 -12 131 0
11 -67 -12 -131 0
-11 67 -12 132 0
-11 67 -12 -132 0
12 68 13 133 0
12 68 13 -133 0
-12 -68 13 134 0
-12 -68 13 -134 0
12 -68 -13 135 0
12 -68 -13 -135 0
-12 68 -13 136 0
-12 68 -13 -136 0
13 69 14 137 0
13 69 14 -137 0
-13 -69 14 138 0
-13 -69 14 -138 0
13 -69 -14 139 0
13 -69 -14 -139 0
-13 69 -14 140 0
-13 69 -14 -140 0
14 70 15 141 0
14 70 15 -141 0
-14 -70 15 142 0
-14 -70 15 -142 0
14 -70 -15 143 0
14 -70 -15 -143 0
-14 70 -15 144 0
-14 70 -15 -144 0
15 71 16 145 0
15 71 16 -145 0
-15 -71 16 146 0
-15 -71 16 -146 0
15 -71 -16 147 0
15 -71 -16 -147 0
-15 71 -16 148 0
-15 71 -16 -148 0
16 72 17 149 0
16 72 17 -149 0
-16 -72 17 150 0
-16 -72 17 -150 0
16 -72 -17 151 0
16 -72 -17 -151 0
-16 72 -17 152 0
-16 72 -17 -152 0
17 73 18 153 0
17 73 18 -153 0
-17 -73 18 154 0
-17 -73 18 -154 0
17 -73 -18 155 0
17 -73 -18 -155 0
-17 73 -18 156 0
-17 73 -18 -156 0
18 74 19 157 0
18 74 19 -157 0
-18 -74 19 158 0
-18 -74 19 -158 0
18 -74 -19 159 0
18 -74 -19 -159 0
-18 74 -19 160 0
-18 74 -19 -160 0
19 75 20 161 0
19 75 20 -161 0
-19 -75 20 162 0
-19 -75 20 -162 0
19 -75 -20 163 0
19 -75 -20 -163 0
-19 75 -20 164 0
-19 75 -20 -164 0
20 76 21 165 0
20 76 21 -165 0
-20 -76 21 166 0
-20 -76 21 -166 0
20 -76 -21 167 0
20 -76 -21 -167 0
-20 76 -21 168 0
-20 76 -21 -168 0
21 77 22 169 0
21 77 22 -169 0
-21 -77 22 170 0
-21 -77 22 -170 0
21 -77 -22 171 0
21 -77 -22 -171 0
-21 77 -22 172 0
-21 77 -22 -172 0
22 78 23 173 0
22 78 23 -173 0
-22 -78 23 174 0
-22 -78 23 -174 0
22 -78 -23 175 0
22 -78 -23 -175 0
-22 78 -23 176 0
-22 78 -23 -176 0
23 79 24 177 0
23 79 24 -177 0
-23 -79 24 178 0
-23 -79 24 -178 0
23 -79 -24 179 0
23 -79 -24 -179 0
-23 79 -24 180 0
-23 79 -24 -180 0
24 80 25 181 0
24 80 25 -181 0
-24 -80 25 182 0
-24 -80 25 -182 0
24 -80 -25 183 0
24 -80 -25 -183 0
-24 80 -25 184 0
-24 80 -25 -184 0
25 81 26 185 0
25 81 26 -185 0
-25 -81 26 186 0
-25 -81 26 -186 0
25 -81 -26 187 0
25 -81 -26 -187 0
-25 81 -26 188 0
-25 81 -26 -188 0
26 82 27 189 0
26 82 27 -189 0
-26 -82 27 190 0
-26 -82 27 -190 0
26 -82 -27 191 0
26 -82 -27 -191 0
-26 82 -27 192 0
-26 82 -27 -192 0
27 83 84 193 0
27 83 84 -193 0
-27 -83 84 194 0
-27 -83 84 -194 0
27 -83 -84 195 0
27 -83 -84 -195 0
-27 83 -84 196 0
-27 83 -84 -196 0
28 83 84 197 0
28 83 84 -197 0
-28 -83 84 198 0
-28 -83 84 -198 0
28 -83 -84 199 0
28 -83 -84 -199 0
-28 83 -84 200 0
-28 83 -84 -200 0
29 82 28 201 0
29 82 28 -201 0
-29 -82 28 202 0
-29 -82 28 -202 0
29 -82 -28 203 0
29 -82 -28 -203 0
-29 82 -28 204 0
-29 82 -28 -204 0
30 81 29 205 0
30 81 29 -205 0
-30 -81 29 206 0
-30 -81 29 -206 0
30 -81 -29 207 0
30 -81 -29 -207 0
-30 81 -29 208 0
-30 81 -29 -208 0
31 80 30 209 0
31 80 30 -209 0
-31 -80 30 210 0
-31 -80 30 -210 0
31 -80 -30 211 0
31 -80 -30 -211 0
-31 80 -30 212 0
-31 80 -30 -212 0
32 79 31 213 0
32 79 31 -213 0
-32 -79 31 214 0
-32 -79 31 -214 0
32 -79 -31 215 0
32 -79 -31 -215 0
-32 79 -31 216 0
-32 79 -31 -216 0
33 78 32 217 0
33 78 32 -217 0
-33 -78 32 218 0
-33 -78 32 -218 0
33 -78 -32 219 0
33 -78 -32 -219 0
-33 78 -32 220 0
-33 78 -32 -220 0
34 77 33 221 0
34 77 33 -221 0
-34 -77 33 222 0
-34 -77 33 -222 0
34 -77 -33 223 0
34 -77 -33 -223 0
-34 77 -33 224 0
-34 77 -33 -224 0
35 76 34 225 0
35 76 34 -225 0
-35 -76 34 226 0
-35 -76 34 -226 0
35 -76 -34 227 0
35 -76 -34 -227 0
-35 76 -34 228 0
-35 76 -34 -228 0
36 75 35 229 0
36 75 35 -229 0
-36 -75 35 230 0
-36 -75 35 -230 0
36 -75 -35 231 0
36 -75 -35 -231 0
-36 75 -35 232 0
-36 75 -35 -232 0
37 74 36 233 0
37 74 36 -233 0
-37 -74 36 234 0
-37 -74 36 -234 0
37 -74 -36 235 0
37 -74 -36 -235 0
-37 74 -36 236 0
-37 74 -36 -236 0
38 73 37 237 0
38 73 37 -237 0
-38 -73 37 238 0
-38 -73 37 -238 0
38 -73 -37 239 0
38 -73 -37 -239 0
-38 73 -37 240 0
-38 73 -37 -240 0
39 72 38 241 0
39 72 38 -241 0
-39 -72 38 242 0
-39 -72 38 -242 0
39 -72 -38 243 0
39 -72 -38 -243 0
-39 72 -38 244 0
-39 72 -38 -244 0
40 71 39 245 0
40 71 39 -245 0
-40 -71 39 246 0
-40 -71 39 -246 0
40 -71 -39 247 0
40 -71 -39 -247 0
-40 71 -39 248 0
-40 71 -39 -248 0
41 70 40 249 0
41 70 40 -249 0
-41 -70 40 250 0
-41 -70 40 -250 0
41 -70 -40 251 0
41 -70 -40 -251 0
-41 70 -40 252 0
-41 70 -40 -252 0
42 69 41 253 0
42 69 41 -253 0
-42 -69 41 254 0
-42 -69 41 -254 0
42 -69 -41 255 0
42 -69 -41 -255 0
-42 69 -41 256 0
-42 69 -41 -256 0
43 68 42 257 0
43 68 42 -257 0
-43 -68 42 258 0
-43 -68 42 -258 0
43 -68 -42 259 0
43 -68 -42 -259 0
-43 68 -42 260 0
-43 68 -42 -260 0
44 67 43 261 0
44 67 43 -261 0
-44 -67 43 262 0
-44 -67 43 -262 0
44 -67 -43 263 0
44 -67 -43 -263 0
-44 67 -43 264 0
-44 67 -43 -264 0
45 66 44 265 0
45 66 44 -265 0
-45 -66 44 266 0
-45 -66 44 -266 0
45 -66 -44 267 0
45 -66 -44 -267 0
-45 66 -44 268 0
-45 66 -44 -268 0
46 65 45 269 0
46 65 45 -269 0
-46 -65 45 270 0
-46 -65 45 -270 0
46 -65 -45 271 0
46 -65 -45 -271 0
-46 65 -45 272 0
-46 65 -45 -272 0
47 64 46 273 0
47 64 46 -273 0
-47 -64 46 274 0
-47 -64 46 -274 0
47 -64 -46 275 0
47 -64 -46 -275 0
-47 64 -46 276 0
-47 64 -46 -276 0
48 63 47 277 0
48 63 47 -277 0
-48 -63 47 278 0
-48 -63 47 -278 0
48 -63 -47 279 0
48 -63 -47 -279 0
-48 63 -47 280 0
-48 63 -47 -280 0
49 62 48 281 0
49 62 48 -281 0
-49 -62 48 282 0
-49 -62 48 -282 0
49 -62 -48 283 0
49 -62 -48 -283 0
-49 62 -48 284 0
-49 62 -48 -284 0
50 61 49 285 0
50 61 49 -285 0
-50 -61 49 286 0
-50 -61 49 -286 0
50 -61 -49 287 0
50 -61 -49 -287 0
-50 61 -49 288 0
-50 61 -49 -288 0
51 60 50 289 0
51 60 50 -289 0
-51 -60 50 290 0
-51 -60 50 -290 0
51 -60 -50 291 0
51 -60 -50 -291 0
-51 60 -50 292 0
-51 60 -50 -292 0
52 59 51 293 0
52 59 51 -293 0
-52 -59 51 294 0
-52 -59 51 -294 0
52 -59 -51 295 0
52 -59 -51 -295 0
-52 59 -51 296 0
-52 59 -51 -296 0
53 58 52 297 0
53 58 52 -297 0
-53 -58 52 298 0
-53 -58 52 -298 0
53 -58 -52 299 0
53 -58 -52 -299 0
-53 58 -52 300 0
-53 58 -52 -300 0
54 57 53 301 0
54 57 53 -301 0
-54 -57 53 302 0
-54 -57 53 -302 0
54 -57 -53 303 0
54 -57 -53 -303 0
-54 57 -53 304 0
-54 57 -53 -304 0
55 56 -54 305 0
55 56 -54 -305 0
-55 -56 -54 306 0
-55 -56 -54 -306 0
55 -56 54 307 0
55 -56 54 -307 0
-55 56 54 308 0
-55 56 54 -308 0
